1 -1 -2 0
1 1 3 0
1 1 -4 0
1 1 5 0
1 1 6 0
1 1 7 0
1 2 -8 0
1 -2 3 0
1 2 -4 0
1 2 1 0
1 -2 5 0
1 2 -7 0
1 -9 10 0
1 -9 -11 0
1 9 -12 0
1 9 -3 0
1 -9 -4 0
1 -9 -13 0
1 -9 -14 0
1 -9 -15 0
1 -9 5 0
1 -9 7 0
1 12 -11 0
1 12 16 0
1 -12 4 0
1 12 13 0
1 -12 9 0
1 12 5 0
1 12 -7 0
1 -4 17 0
1 -4 18 0
1 -4 -19 0
1 4 2 0
1 -4 20 0
1 -4 21 0
1 4 -22 0
1 4 23 0
1 -4 -9 0
1 -4 -1 0
1 -4 7 0
1 7 -24 0
1 -7 17 0
1 -7 -18 0
1 7 12 0
1 7 4 0
1 7 21 0
1 -7 22 0
1 -7 23 0
1 -7 -9 0
1 -3 25 0
1 3 -26 0
1 3 -2 0
1 -3 -27 0
1 -3 21 0
1 3 -9 0
1 3 1 0
1 3 -5 0
1 -5 17 0
1 5 -25 0
1 5 -26 0
1 5 -12 0
1 -5 2 0
1 5 3 0
1 -5 -21 0
1 5 28 0
1 -5 -9 0
1 -5 -29 0
1 -23 -11 0
1 -23 19 0
1 -23 -13 0
1 -23 14 0
1 23 30 0
1 -23 -7 0
1 19 10 0
1 -19 11 0
1 -19 26 0
1 19 -4 0
1 -19 -13 0
1 19 -14 0
1 -19 23 0
1 19 -7 0
1 -22 10 0
1 -22 -11 0
1 -22 18 0
1 22 -31 0
1 22 -32 0
1 22 13 0
1 22 14 0
1 22 -33 0
1 22 -28 0
1 -22 -34 0
1 22 -7 0
1 -18 -10 0
1 -18 -11 0
1 18 -31 0
1 18 25 0
1 18 -4 0
1 18 -13 0
1 -18 14 0
1 -18 -33 0
1 -18 34 0
1 14 11 0
1 14 18 0
1 -14 19 0
1 14 -12 0
1 14 35 0
1 -14 36 0
1 -14 37 0
1 14 -38 0
1 14 -23 0
1 -11 -39 0
1 11 -40 0
1 -11 -41 0
1 -11 -18 0
1 -11 -19 0
1 -11 12 0
1 11 35 0
1 11 -36 0
1 -11 37 0
1 -11 14 0
1 -11 -23 0
1 11 9 0
1 11 -42 0
1 13 10 0
1 -13 -43 0
1 13 17 0
1 13 18 0
1 -13 -19 0
1 -13 12 0
1 -13 -35 0
1 -13 -44 0
1 -13 45 0
1 -13 -21 0
1 13 -22 0
1 -13 9 0
1 -10 -46 0
1 -10 19 0
1 10 -12 0
1 -10 -35 0
1 -10 -13 0
1 10 44 0
1 -10 21 0
1 10 -22 0
1 10 -9 0
1 10 -42 0
1 37 40 0
1 -37 31 0
1 -37 32 0
1 37 14 0
1 -37 21 0
1 37 34 0
1 40 -11 0
1 -40 17 0
1 40 31 0
1 40 -32 0
1 40 37 0
1 -40 14 0
1 -40 -33 0
1 40 -34 0
1 -36 -11 0
1 -36 31 0
1 36 -32 0
1 -36 -44 0
1 36 14 0
1 36 33 0
1 36 -34 0
1 -39 43 0
1 -39 11 0
1 39 -31 0
1 39 32 0
1 -39 -36 0
1 -39 -14 0
1 -39 -33 0
1 34 -39 0
1 -34 40 0
1 -34 18 0
1 34 32 0
1 -34 47 0
1 34 36 0
1 -34 -37 0
1 34 22 0
1 34 48 0
1 -32 39 0
1 -32 -40 0
1 -32 -49 0
1 -32 47 0
1 32 -37 0
1 -32 22 0
1 -32 34 0
1 32 48 0
1 33 39 0
1 33 40 0
1 -33 18 0
1 -33 -31 0
1 33 47 0
1 -33 -50 0
1 33 35 0
1 33 36 0
1 33 37 0
1 -33 22 0
1 -33 -51 0
1 33 48 0
1 -33 -52 0
1 31 40 0
1 31 53 0
1 -31 50 0
1 31 35 0
1 -31 36 0
1 31 37 0
1 31 -22 0
1 31 -33 0
1 31 -48 0
1 31 -52 0
1 31 42 0
1 6 -54 0
1 6 -55 0
1 -6 -56 0
1 6 57 0
1 8 54 0
1 8 -55 0
1 8 -2 0
1 -8 -56 0
1 8 57 0
1 -15 -54 0
1 15 -55 0
1 -15 -58 0
1 -15 -59 0
1 -15 16 0
1 15 -56 0
1 -15 -57 0
1 15 -60 0
1 15 -61 0
1 -15 -9 0
1 16 54 0
1 -16 58 0
1 -16 -59 0
1 16 12 0
1 16 -57 0
1 -16 -61 0
1 16 -15 0
1 -55 -25 0
1 -55 -62 0
1 -55 -16 0
1 -55 8 0
1 -55 -57 0
1 55 -28 0
1 -55 30 0
1 -55 15 0
1 57 -55 0
1 57 -25 0
1 57 26 0
1 57 8 0
1 57 28 0
1 -57 30 0
1 -57 15 0
1 57 -6 0
1 -54 -63 0
1 54 16 0
1 54 -8 0
1 54 -56 0
1 -54 -15 0
1 -54 6 0
1 -56 -54 0
1 -56 -16 0
1 -56 -8 0
1 -56 64 0
1 -56 -15 0
1 56 6 0
1 30 -55 0
1 30 -26 0
1 30 59 0
1 30 -3 0
1 30 -60 0
1 30 -23 0
1 -30 5 0
1 -26 55 0
1 26 58 0
1 26 3 0
1 -26 -57 0
1 -26 60 0
1 26 61 0
1 -26 30 0
1 -26 5 0
1 -28 -25 0
1 28 -58 0
1 28 -59 0
1 -28 65 0
1 28 -66 0
1 28 -3 0
1 28 57 0
1 -28 60 0
1 28 -22 0
1 -28 -61 0
1 -28 -67 0
1 -28 -68 0
1 28 -5 0
1 -25 -55 0
1 -25 -18 0
1 -25 58 0
1 -25 59 0
1 25 66 0
1 25 3 0
1 25 -60 0
1 25 -28 0
1 -25 5 0
1 -59 69 0
1 59 -43 0
1 59 -17 0
1 59 25 0
1 59 -26 0
1 -59 -70 0
1 59 44 0
1 59 -21 0
1 59 30 0
1 -59 -15 0
1 61 43 0
1 61 -17 0
1 61 25 0
1 -61 26 0
1 -61 59 0
1 61 16 0
1 61 -71 0
1 61 44 0
1 61 21 0
1 -61 -28 0
1 61 -72 0
1 61 -30 0
1 61 15 0
1 -58 69 0
1 -58 -25 0
1 -58 -73 0
1 58 26 0
1 -58 -16 0
1 58 -71 0
1 58 -60 0
1 58 -28 0
1 58 -30 0
1 58 -15 0
1 -60 69 0
1 60 58 0
1 60 26 0
1 60 -71 0
1 -60 74 0
1 -60 -30 0
1 21 10 0
1 21 17 0
1 21 65 0
1 -21 -66 0
1 21 -3 0
1 21 4 0
1 -21 -37 0
1 21 -67 0
1 21 -5 0
1 -21 -7 0
1 17 -59 0
1 17 66 0
1 17 -4 0
1 17 13 0
1 17 21 0
1 17 -61 0
1 -17 67 0
1 17 -68 0
1 -17 -5 0
1 17 7 0
1 44 24 0
1 -44 10 0
1 -44 43 0
1 -44 -59 0
1 -44 65 0
1 -44 -66 0
1 44 27 0
1 44 -13 0
1 -44 36 0
1 44 61 0
1 44 -67 0
1 -44 -68 0
1 43 -24 0
1 43 -10 0
1 -43 -66 0
1 -43 27 0
1 -43 -20 0
1 -43 -44 0
1 -43 -61 0
1 43 -67 0
1 43 68 0
1 43 29 0
1 66 -43 0
1 66 -50 0
1 -66 -75 0
1 -66 35 0
1 66 44 0
1 -66 21 0
1 -66 -28 0
1 -66 -68 0
1 66 -76 0
1 -68 43 0
1 -68 -17 0
1 68 -66 0
1 -68 -77 0
1 -68 -50 0
1 -68 35 0
1 -68 -78 0
1 -68 -44 0
1 68 21 0
1 68 76 0
1 -68 -52 0
1 -65 69 0
1 65 -43 0
1 65 -25 0
1 65 71 0
1 65 21 0
1 -65 67 0
1 -65 -76 0
1 65 79 0
1 67 69 0
1 67 -43 0
1 67 17 0
1 -67 25 0
1 -67 -77 0
1 67 80 0
1 67 71 0
1 67 44 0
1 67 -21 0
1 -67 81 0
1 -67 76 0
1 67 79 0
1 -35 24 0
1 -35 10 0
1 -35 -31 0
1 35 -71 0
1 35 -13 0
1 -35 -20 0
1 35 14 0
1 -35 33 0
1 35 -68 0
1 -35 29 0
1 42 69 0
1 -42 -10 0
1 42 24 0
1 -42 11 0
1 42 -31 0
1 42 -66 0
1 42 -27 0
1 -42 35 0
1 42 20 0
1 42 -13 0
1 -42 -14 0
1 42 33 0
1 42 -68 0
1 42 29 0
1 -50 24 0
1 50 46 0
1 50 41 0
1 -50 -31 0
1 50 66 0
1 50 -80 0
1 -50 -27 0
1 50 20 0
1 -50 -45 0
1 -50 -38 0
1 -50 33 0
1 -50 -68 0
1 50 -52 0
1 50 29 0
1 52 24 0
1 52 -41 0
1 52 66 0
1 52 -50 0
1 52 -20 0
1 52 45 0
1 -52 -38 0
1 -52 -33 0
1 -52 29 0
1 -52 -68 0
1 -20 -24 0
1 20 43 0
1 20 -47 0
1 20 50 0
1 -20 -4 0
1 20 -44 0
1 20 -82 0
1 20 83 0
1 20 -48 0
1 -20 52 0
1 20 42 0
1 24 43 0
1 24 -84 0
1 24 85 0
1 -24 -47 0
1 -24 50 0
1 24 -20 0
1 24 44 0
1 24 -7 0
1 24 -82 0
1 -24 -83 0
1 24 48 0
1 24 52 0
1 24 42 0
1 -27 43 0
1 27 -84 0
1 27 86 0
1 27 77 0
1 -27 -50 0
1 27 3 0
1 -27 -35 0
1 27 -44 0
1 27 82 0
1 -27 -87 0
1 27 76 0
1 -27 52 0
1 27 29 0
1 27 42 0
1 29 43 0
1 29 86 0
1 29 77 0
1 -29 50 0
1 29 27 0
1 29 -35 0
1 29 -44 0
1 29 5 0
1 -29 82 0
1 29 87 0
1 29 76 0
1 29 -52 0
1 29 42 0
1 47 -24 0
1 47 46 0
1 47 31 0
1 -47 -41 0
1 47 32 0
1 -47 45 0
1 47 38 0
1 -47 -34 0
1 47 -48 0
1 48 24 0
1 -48 46 0
1 48 -41 0
1 -48 -31 0
1 48 -32 0
1 -48 -20 0
1 48 -45 0
1 -48 38 0
1 -48 33 0
1 48 34 0
1 -48 -76 0
1 85 -24 0
1 -85 -46 0
1 85 -41 0
1 85 -53 0
1 85 83 0
1 -85 -49 0
1 -85 -86 0
1 -85 -20 0
1 85 38 0
1 -85 51 0
1 85 -88 0
1 83 24 0
1 83 -46 0
1 83 41 0
1 -83 -53 0
1 83 -49 0
1 83 85 0
1 83 -20 0
1 83 45 0
1 -83 -38 0
1 -83 -51 0
1 -83 88 0
1 83 87 0
1 38 -41 0
1 -38 -89 0
1 38 85 0
1 -38 -47 0
1 38 50 0
1 -38 14 0
1 38 90 0
1 38 48 0
1 -38 -52 0
1 -41 11 0
1 41 -89 0
1 -41 91 0
1 -41 -85 0
1 41 47 0
1 -41 -50 0
1 41 -90 0
1 -41 -38 0
1 -41 -92 0
1 -41 -83 0
1 -41 -48 0
1 41 -52 0
1 45 -93 0
1 45 -84 0
1 -45 -85 0
1 45 47 0
1 -45 50 0
1 45 13 0
1 -45 94 0
1 45 82 0
1 45 83 0
1 -45 -48 0
1 45 -52 0
1 -46 -10 0
1 46 -93 0
1 46 -85 0
1 -46 47 0
1 46 -50 0
1 46 -45 0
1 46 -94 0
1 -46 -82 0
1 -46 83 0
1 46 52 0
1 -91 -41 0
1 -91 53 0
1 91 -49 0
1 91 -84 0
1 -91 51 0
1 91 38 0
1 -92 41 0
1 -92 91 0
1 92 -49 0
1 -92 -38 0
1 -92 51 0
1 92 -82 0
1 -92 -88 0
1 -89 -41 0
1 -89 53 0
1 -89 93 0
1 89 -49 0
1 -89 90 0
1 89 -51 0
1 89 88 0
1 -90 41 0
1 -90 -89 0
1 -90 49 0
1 -90 94 0
1 -90 -51 0
1 -90 -88 0
1 88 -89 0
1 -88 91 0
1 -88 -49 0
1 -88 -85 0
1 -88 90 0
1 -88 -92 0
1 -88 34 0
1 -88 83 0
1 49 -89 0
1 49 -32 0
1 -49 91 0
1 -49 -85 0
1 49 90 0
1 49 -92 0
1 -49 88 0
1 51 89 0
1 51 -53 0
1 51 91 0
1 -51 -85 0
1 51 33 0
1 51 92 0
1 -53 89 0
1 53 -85 0
1 -53 -51 0
1 53 -90 0
1 53 -92 0
1 53 83 0
1 71 -63 0
1 -71 -62 0
1 71 -58 0
1 -71 65 0
1 -71 -35 0
1 -71 -95 0
1 71 -60 0
1 -71 -61 0
1 71 67 0
1 -69 63 0
1 69 -62 0
1 69 65 0
1 69 71 0
1 69 -64 0
1 -69 95 0
1 69 60 0
1 -69 -61 0
1 -69 -67 0
1 -69 42 0
1 -80 63 0
1 -80 -62 0
1 -80 73 0
1 -80 -70 0
1 -80 65 0
1 80 64 0
1 -80 95 0
1 -80 74 0
1 -80 -72 0
1 80 -67 0
1 -80 -79 0
1 79 62 0
1 79 70 0
1 -79 -65 0
1 -79 80 0
1 -79 -95 0
1 -79 74 0
1 79 -72 0
1 79 67 0
1 79 52 0
1 -62 69 0
1 -62 -86 0
1 -62 77 0
1 -62 80 0
1 -62 -71 0
1 62 -95 0
1 62 -87 0
1 -62 -76 0
1 -62 -79 0
1 95 69 0
1 -95 62 0
1 -95 -86 0
1 95 -77 0
1 -95 80 0
1 -95 71 0
1 95 -57 0
1 -95 87 0
1 -95 76 0
1 95 -79 0
1 63 69 0
1 63 -64 0
1 -63 79 0
1 -64 69 0
1 64 -63 0
1 -64 80 0
1 64 71 0
1 64 -56 0
1 -64 -79 0
1 77 -62 0
1 -77 70 0
1 -77 65 0
1 77 -47 0
1 -77 66 0
1 77 27 0
1 77 -95 0
1 77 74 0
1 -77 -72 0
1 -77 68 0
1 77 -76 0
1 -77 29 0
1 -76 -62 0
1 76 70 0
1 -76 65 0
1 76 -68 0
1 -76 -66 0
1 76 77 0
1 -76 27 0
1 -76 95 0
1 -76 -74 0
1 76 -72 0
1 -76 67 0
1 -76 -48 0
1 76 29 0
1 -86 81 0
1 86 73 0
1 -86 70 0
1 86 -96 0
1 -86 75 0
1 86 95 0
1 86 74 0
1 -86 -72 0
1 -86 87 0
1 86 78 0
1 86 -29 0
1 -87 -62 0
1 -87 -73 0
1 87 70 0
1 87 -86 0
1 87 -75 0
1 87 -95 0
1 -87 74 0
1 87 72 0
1 -87 -81 0
1 -87 29 0
1 70 -72 0
1 -70 93 0
1 -70 59 0
1 70 -84 0
1 70 -86 0
1 -70 -77 0
1 70 -80 0
1 70 87 0
1 -70 76 0
1 70 79 0
1 72 -93 0
1 72 -84 0
1 -72 86 0
1 72 77 0
1 -72 94 0
1 -72 -61 0
1 72 -82 0
1 72 -87 0
1 -72 76 0
1 73 58 0
1 73 -86 0
1 73 77 0
1 -73 -80 0
1 -73 74 0
1 73 87 0
1 73 79 0
1 -74 73 0
1 74 86 0
1 -74 -77 0
1 74 80 0
1 74 -79 0
1 84 -24 0
1 -84 -72 0
1 84 91 0
1 84 70 0
1 -84 -96 0
1 84 75 0
1 -84 -27 0
1 -84 20 0
1 84 -45 0
1 84 -81 0
1 84 -78 0
1 84 29 0
1 82 24 0
1 82 -46 0
1 82 84 0
1 82 70 0
1 82 -75 0
1 -82 -27 0
1 82 45 0
1 -82 92 0
1 -82 72 0
1 82 81 0
1 -82 78 0
1 -82 29 0
1 -93 -46 0
1 93 -89 0
1 93 -96 0
1 93 -45 0
1 93 72 0
1 -93 81 0
1 -94 46 0
1 94 -70 0
1 -94 45 0
1 94 -90 0
1 -94 -72 0
1 94 81 0
1 94 -78 0
1 -75 -84 0
1 75 -86 0
1 75 66 0
1 -75 94 0
1 75 82 0
1 75 -87 0
1 75 78 0
1 78 -93 0
1 78 -84 0
1 -78 86 0
1 78 -94 0
1 78 82 0
1 -78 -87 0
1 -96 -93 0
1 96 81 0
1 96 -65 0
1 -96 86 0
1 -96 94 0
1 -96 -87 0
1 81 -93 0
1 -81 84 0
1 81 86 0
1 -81 96 0
1 81 -94 0
1 -81 -82 0
1 81 67 0
1 -81 87 0
